2
22
32
40	34
1	1	17	4	
2	1	16	3	
3	1	7	13	
4	2	6	16	18	5	
5	2	7	15	13	9	
6	1	15	4	
7	2	9	6	30	4	
8	1	5	16	
9	1	16	7	
10	2	5	16	19	7	
11	2	18	8	34	3	
12	1	6	16	
13	1	28	3	
14	2	10	6	29	3	
15	2	20	5	32	4	
16	1	11	6	
17	2	14	9	13	4	
18	1	12	3	
19	2	7	10	17	4	
20	1	19	6	
21	1	23	3	
22	2	14	9	7	9	
